(set-info :Origin "This instance was generated by: BanditFuzz-- an RL fuzzer for SMT solvers" )
(set-info :Author "Joe Scott, Fed Mora, Vijay Ganesh" )
(set-info :Contact "Joe Scott, joseph.scott@uwaterloo.ca")
(set-logic QF_BV)
(declare-const bool_0 Bool)
(declare-const bool_1 Bool)
(declare-const bool_2 Bool)
(declare-const bool_3 Bool)
(declare-const bool_4 Bool)
(declare-const bv_0 (_ BitVec 32))
(declare-const bv_1 (_ BitVec 32))
(declare-const bv_2 (_ BitVec 32))
(declare-const bv_3 (_ BitVec 32))
(declare-const bv_4 (_ BitVec 32))
(assert (bvsle (bvashr (bvnor bv_4 #x4c666096 ) (bvashr #xb0ea144e  bv_2)) (bvand (bvxor bv_3 #x42d21ecc ) (bvsub #x9d767849  #xaf727031 ))))
(assert (bvugt (bvashr (bvsub bv_0 bv_0) (bvsmod #xca019cd2  bv_4)) (bvxnor (bvnand bv_0 #xcf434979 ) (bvashr #x910dabde  bv_2))))
(assert (bvule (bvor (bvxnor #x86d97b7f  #xe2306095 ) (bvsmod bv_2 #x80617800 )) (bvshl (bvashr #x3217f251  #x01dd623d ) (bvlshr bv_4 #x96d6b54a ))))
(assert (bvult (bvshl (bvadd bv_3 #x507a508d ) (bvashr #x7cc0b068  #x26162836 )) (bvadd (bvlshr #x49d2cbc7  #x2aac2e74 ) (bvsrem #x343c877b  #x096bce38 ))))
(assert (bvuge (bvsub (bvxnor bv_1 bv_1) (bvnand #xdb373af7  bv_0)) (bvand (bvand bv_2 #x1e4b7b4e ) (bvnor bv_2 bv_2))))
(check-sat)
(exit)
